Nb of jobs, Nb of Machines, Time seed, Machine seed, Upper bound, Lower bound
10,5,-1,-1,-1,-1
Times
98,84,16,27,6
80,3,6,98,28
32,60,67,22,79
49,5,27,2,29
70,91,20,69,68
86,65,87,23,24
4,1,26,32,98
37,6,46,53,86
75,73,56,44,5
9,35,98,40,14
Machines
4,2,1,3,5
5,4,1,2,3
3,5,1,4,2
2,3,4,5,1
3,1,5,2,4
5,4,3,2,1
4,1,3,5,2
3,4,2,1,5
1,2,3,5,4
2,3,5,1,4
